
# ------------------------ INITIALIZATION ----------------------------
units 		metal
dimension	3
boundary	p	p	p
atom_style	atomic

# ----------------------- ATOM DEFINITION ----------------------------
lattice		fcc 4.58
region		myregion block 0 10 0 10 0 10
create_box	1 myregion
create_atoms	1 region myregion

mass 1 39.948

# ------------------------ FORCE FIELDS ------------------------------
pair_style	lj/cut 10
pair_coeff	* * 1 1

# ------------------------  MINIMIZATION ------------------------------
minimize 1.0e-20 1.0e-20 10000 10000

timestep 0.001

# ------------------------  EQUILIBRATION ------------------------------
velocity all create 400 12345 dist gaussian mom yes rot no
fix 1 all nve

dump 		dump_1 all custom 250 yt.dump id type x y z ix iy iz  vx vy vz 
thermo_style	custom step time temp pe ke etotal press vol


thermo 250
run 5000

undump dump_1
unfix 1
 
######################################
# SIMULATION DONE
print "All done"